* Signature: 0xf92ab5ba91602880
NAME lp_typeD_091
OBJSENSE MAX
ROWS
 N  OBJ
 L  c0      
 G  c1      
 G  c2      
 L  c_key_upper
 G  c_key_lower
 G  _chain_constr_1
 G  _chain_constr_2
 G  _chain_cycle
COLUMNS
    x0        OBJ       0.809752455669555
    x0        c0        8.5526643740901909e-01
    x0        c1        1.6682087980536950e+00
    x0        c2        1.9836678487424726e+00
    x0        c_key_upper  1.4241745104713475e+00
    x0        c_key_lower  1.4241745104713475e+00
    x1        OBJ       5.2346560506633388e-01
    x1        c0        6.8979886214961583e-01
    x1        c1        1.6133789683710671e+00
    x1        c2        8.6691874934008251e-01
    x1        c_key_upper  1.4084034133455179e+00
    x1        c_key_lower  1.4084034133455179e+00
    x2        OBJ       6.3815717441706954e-01
    x2        c0        1.4313495243988672e+00
    x2        c1        1.6900069663654782e+00
    x2        c2        1.1684906269985169e+00
    x2        c_key_upper  1.6982619802666052e+00
    x2        c_key_lower  1.6982619802666052e+00
    x3        OBJ       1.4884220553001777e+00
    x3        c0        1.0320463875735417e+00
    x3        c1        1.4546359533807149e+00
    x3        c2        1.4046042164661279e+00
    x3        c_key_upper  1.6693672053848521e+00
    x3        c_key_lower  1.6693672053848521e+00
    x4        OBJ       0.973138002887422
    x4        c0        7.3798248767253938e-01
    x4        c1        1.1509041946044403e+00
    x4        c2        1.9853028583416221e+00
    x4        c_key_upper  1.2281446107747289e+00
    x4        c_key_lower  1.2281446107747289e+00
    x5        OBJ       1.2799047116755253e+00
    x5        c0        1.8910574920624499e+00
    x5        c1        8.4431747751101360e-01
    x5        c2        1.5574749938063381e+00
    x5        c_key_upper  1.2604078338489260e+00
    x5        c_key_lower  1.2604078338489260e+00
    x6        OBJ       5.3386784880290650e-01
    x6        c0        1.6983595315440314e+00
    x6        c1        1.1607374436537448e+00
    x6        c2        1.9046370445249940e+00
    x6        c_key_upper  1.6227253003963455e+00
    x6        c_key_lower  1.6227253003963455e+00
    x7        OBJ       1.3473804281735715e+00
    x7        c0        1.6380786780218115e+00
    x7        c1        9.3502112684420913e-01
    x7        c2        1.6118076344503687e+00
    x7        c_key_upper  1.3406717596541688e+00
    x7        c_key_lower  1.3406717596541688e+00
    x8        OBJ       5.0797358301213691e-01
    x8        c0        1.0054157848173102e+00
    x8        c1        1.6608356702174421e+00
    x8        c2        5.2512137844377427e-01
    x8        c_key_upper  1.5032807653455609e+00
    x8        c_key_lower  1.5032807653455609e+00
    _chain_var_0  _chain_constr_1  -1
    _chain_var_0  _chain_cycle  1
    _chain_var_1  _chain_constr_1  1
    _chain_var_1  _chain_constr_2  -1
    _chain_var_2  _chain_constr_2  1
    _chain_var_2  _chain_cycle  -1
RHS
    RHS1      c0        5.4211284960911911e+01
    RHS1      c1        1.4844211866013341e+01
    RHS1      c2        1.9304232326929796e+01
    RHS1      c_key_upper  6.5777186897440259e+01
    RHS1      c_key_lower  3.2888593448720130e+01
    RHS1      _chain_constr_1  10
    RHS1      _chain_constr_2  10
    RHS1      _chain_cycle  10
BOUNDS
 UP BND1      x0        10
 UP BND1      x1        10
 UP BND1      x2        10
 UP BND1      x3        10
 UP BND1      x4        10
 UP BND1      x5        10
 UP BND1      x6        10
 UP BND1      x7        10
 UP BND1      x8        10
 UP BND1      _chain_var_0  100
 UP BND1      _chain_var_1  100
 UP BND1      _chain_var_2  100
ENDATA
